(set-logic HORN)

(declare-fun inv-f
             (Int
              Int
              Int
              Int
              Int
              Int
              Int
              Int
              Int
              Int
              Int
              Int
              Int
              Int
              Int
              Int
              Int
              Int
              Int
              Int
              Int)
             Bool)
(assert (forall ((A Int)
         (B Int)
         (C Int)
         (D Int)
         (E Int)
         (F Int)
         (G Int)
         (H Int)
         (I Int)
         (J Int)
         (K Int)
         (L Int)
         (M Int)
         (N Int)
         (O Int)
         (P Int)
         (Q Int)
         (R Int)
         (S Int)
         (T Int)
         (U Int))
  (=> (and (inv-f U T S R Q P O N M L K J I H G F E D C B A)
              (= (- U P) 0)
              (= (- T N) 0)
              (= (- S L) 0)
              (= (- R F) 0)
              (< (- F) 0)
              (= (- Q C) 0)
              (< (- C P) 0))
         false)
    ))
(assert (forall ((A Int)
         (B Int)
         (C Int)
         (D Int)
         (E Int)
         (F Int)
         (G Int)
         (H Int)
         (I Int)
         (J Int)
         (K Int)
         (L Int)
         (M Int)
         (N Int)
         (O Int)
         (P Int)
         (Q Int)
         (R Int)
         (S Int)
         (T Int)
         (U Int))
  (=> (and (= (- T N) 0)
              (= (- S M) 0)
              (= (- R G) 0)
              (= (+ (- 4) M) 0)
              (= N 0)
              (= G 0))
         (inv-f U T S R Q P O N M L K J I H G F E D C B A))
    ))
(assert (forall ((A Int)
         (B Int)
         (C Int)
         (D Int)
         (E Int)
         (F Int)
         (G Int)
         (H Int)
         (I Int)
         (J Int)
         (K Int)
         (L Int)
         (M Int)
         (N Int)
         (O Int)
         (P Int)
         (Q Int)
         (R Int)
         (S Int)
         (T Int)
         (U Int)
         (V Int)
         (W Int)
         (X Int)
         (Y Int)
         (Z Int)
         (A1 Int)
         (B1 Int)
         (C1 Int)
         (D1 Int)
         (E1 Int)
         (F1 Int)
         (G1 Int)
         (H1 Int)
         (I1 Int)
         (J1 Int)
         (K1 Int)
         (L1 Int)
         (M1 Int)
         (N1 Int)
         (O1 Int)
         (P1 Int))
  (let ((a!1 (and (= (- R Z) 0) (= (- L Y) 0) (= (- H X) 0))))
     (let ((a!2 (and (and a!1 (>= (- L) 0))
                     (>= (- (+ (- 1) W) H) 0)
                     (= (- G W) 0)
                     (= (- Q R) 0)
                     (= (- P Q) 0)
                     (= (- F G) 0)
                     (= (+ (- (- 1) L) K) 0)
                     (= (+ (- 453) O) 0)
                     (= (- O T) 0)
                     (= (- K I) 0)
                     (= (- F E) 0)
                     (= (- B1 W) 0)
                     (= (- P1 W) 0)
                     (= (- A1 U) 0)
                     (= (- E1 U) 0)))
           (a!3 (and (and a!1 (>= (- L) 0))
                     (< (- (+ (- 1) W) H) 0)
                     (= (- P R) 0)
                     (= (- F H) 0)
                     (= (+ (- (- 1) L) K) 0)
                     (= (+ (- 453) O) 0)
                     (= (- O T) 0)
                     (= (- K I) 0)
                     (= (- F E) 0)
                     (= (- B1 W) 0)
                     (= (- P1 W) 0)
                     (= (- A1 U) 0)
                     (= (- E1 U) 0))))
     (let ((a!4 (or (and a!1
                         (= (- R T) 0)
                         (= (- L I) 0)
                         (= (- H E) 0)
                         (= (- B1 P1) 0)
                         (= (- A1 E1) 0)
                         (= (- Z T) 0)
                         (= (- X E) 0))
                    a!2
                    a!3)))
       (=> (and (inv-f B1 A1 Z Y X W V U S R Q P O N M L K J H G F) a!4)
           (inv-f P1 E1 T I E D C B A O1 N1 M1 L1 K1 J1 I1 H1 G1 F1 D1 C1)))))
    ))


(check-sat)
(exit)
